Running MiniSat on FULL_RUN_MINISAT\5b5dfab02ce5c12a50be3bc7d7cc42c7-pcmax-scheduling-m15-2352-13561-SAT.sanitized.cnf... 
============================[ Problem Statistics ]=============================
|                                                                             |
|  Number of variables:          2351                                         |
|  Number of clauses:           13401                                         |
|  Parse time:                   0.04 s                                       |
|                                                                             |
============================[ Search Statistics ]==============================
| Conflicts |          ORIGINAL         |          LEARNT          | Progress |
|           |    Vars  Clauses Literals |    Limit  Clauses Lit/Cl |          |
===============================================================================
|       100 |    2288    13394    35833 |     4911      100      4 |  2.680 % |
|       250 |    2288    13394    35833 |     5402      250      8 |  2.680 % |
|       475 |    2288    13394    35833 |     5942      475     25 |  2.680 % |
|       812 |    2288    13394    35833 |     6536      812     33 |  2.680 % |
|      1318 |    2288    13394    35833 |     7190     1318     56 |  2.680 % |
|      2077 |    2288    13394    35833 |     7909     2077     64 |  2.680 % |
|      3216 |    2288    13394    35833 |     8700     3216     77 |  2.680 % |
|      4924 |    2288    13394    35833 |     9570     4924     86 |  2.680 % |
|      7486 |    2288    13394    35833 |    10527     7486    101 |  2.680 % |
|     11330 |    2287    13380    35804 |    11580     5907     88 |  2.722 % |
|     17096 |    2287    13380    35804 |    12738    11673    109 |  2.722 % |
|     25745 |    2287    13380    35804 |    14012     7310    115 |  2.722 % |
|     38719 |    2287    13380    35804 |    15413    13051    113 |  2.722 % |
|     58180 |    2287    13380    35804 |    16954     8753     88 |  2.722 % |
ERROR: MiniSat process not found for FULL_RUN_MINISAT\5ea72bcdccc86bd1a924029f7b81aec5-atco_enc1_opt1_10_15.cnf 
Finished MiniSat on FULL_RUN_MINISAT\5ea72bcdccc86bd1a924029f7b81aec5-atco_enc1_opt1_10_15.cnf